NAME 
ROWS
 N  OBJ
 G  R0      
 G  R1      
 G  R2      
 G  R3      
 G  R4      
 G  R5      
 G  R6      
 G  R7      
 G  R8      
 G  R9      
 G  R10     
 G  R11     
 G  R12     
 G  R13     
 G  R14     
 G  R15     
 G  R16     
 G  R17     
 G  R18     
 G  R19     
 G  R20     
 G  R21     
 G  R22     
 G  R23     
 G  R24     
 G  R25     
 G  R26     
 G  R27     
 G  R28     
 G  R29     
 G  R30     
 G  R31     
 G  R32     
 G  R33     
 G  R34     
 G  R35     
 G  R36     
 G  R37     
 G  R38     
 G  R39     
 G  R40     
 G  R41     
 G  R42     
 G  R43     
 G  R44     
 G  R45     
 G  R46     
 G  R47     
 G  R48     
 G  R49     
 G  R50     
 G  R51     
 G  R52     
 G  R53     
 G  R54     
 G  R55     
 G  R56     
 G  R57     
 G  R58     
 G  R59     
COLUMNS
    x0        OBJ       1
    x0        R0        1
    x0        R7        1
    x0        R11       1
    x0        R13       1
    x0        R14       1
    x0        R19       1
    x0        R21       1
    x0        R22       1
    x0        R25       1
    x0        R26       1
    x0        R28       1
    x0        R33       1
    x0        R34       1
    x0        R37       1
    x0        R38       1
    x0        R40       1
    x0        R45       1
    x0        R46       1
    x0        R48       1
    x0        R52       1
    x1        OBJ       1
    x1        R1        1
    x1        R6        1
    x1        R10       1
    x1        R12       1
    x1        R15       1
    x1        R18       1
    x1        R20       1
    x1        R23       1
    x1        R24       1
    x1        R27       1
    x1        R29       1
    x1        R32       1
    x1        R35       1
    x1        R36       1
    x1        R39       1
    x1        R41       1
    x1        R44       1
    x1        R47       1
    x1        R49       1
    x1        R53       1
    x2        OBJ       1
    x2        R2        1
    x2        R5        1
    x2        R9        1
    x2        R12       1
    x2        R15       1
    x2        R17       1
    x2        R20       1
    x2        R23       1
    x2        R24       1
    x2        R27       1
    x2        R30       1
    x2        R32       1
    x2        R35       1
    x2        R36       1
    x2        R39       1
    x2        R42       1
    x2        R44       1
    x2        R47       1
    x2        R50       1
    x2        R54       1
    x3        OBJ       1
    x3        R3        1
    x3        R4        1
    x3        R8        1
    x3        R13       1
    x3        R14       1
    x3        R16       1
    x3        R21       1
    x3        R22       1
    x3        R25       1
    x3        R26       1
    x3        R31       1
    x3        R33       1
    x3        R34       1
    x3        R37       1
    x3        R38       1
    x3        R43       1
    x3        R45       1
    x3        R46       1
    x3        R51       1
    x3        R55       1
    x4        OBJ       1
    x4        R3        1
    x4        R4        1
    x4        R9        1
    x4        R10       1
    x4        R15       1
    x4        R17       1
    x4        R18       1
    x4        R23       1
    x4        R24       1
    x4        R29       1
    x4        R30       1
    x4        R35       1
    x4        R36       1
    x4        R41       1
    x4        R42       1
    x4        R44       1
    x4        R49       1
    x4        R50       1
    x4        R56       1
    x5        OBJ       1
    x5        R2        1
    x5        R5        1
    x5        R8        1
    x5        R11       1
    x5        R14       1
    x5        R16       1
    x5        R19       1
    x5        R22       1
    x5        R25       1
    x5        R28       1
    x5        R31       1
    x5        R34       1
    x5        R37       1
    x5        R40       1
    x5        R43       1
    x5        R45       1
    x5        R48       1
    x5        R51       1
    x5        R57       1
    x6        OBJ       1
    x6        R1        1
    x6        R6        1
    x6        R8        1
    x6        R11       1
    x6        R13       1
    x6        R16       1
    x6        R19       1
    x6        R21       1
    x6        R26       1
    x6        R28       1
    x6        R31       1
    x6        R33       1
    x6        R38       1
    x6        R40       1
    x6        R43       1
    x6        R46       1
    x6        R48       1
    x6        R51       1
    x6        R58       1
    x7        OBJ       1
    x7        R0        1
    x7        R7        1
    x7        R9        1
    x7        R10       1
    x7        R12       1
    x7        R17       1
    x7        R18       1
    x7        R20       1
    x7        R27       1
    x7        R29       1
    x7        R30       1
    x7        R32       1
    x7        R39       1
    x7        R41       1
    x7        R42       1
    x7        R47       1
    x7        R49       1
    x7        R50       1
    x7        R59       1
    x8        OBJ       1
    x8        R3        1
    x8        R5        1
    x8        R6        1
    x8        R8        1
    x8        R15       1
    x8        R17       1
    x8        R18       1
    x8        R20       1
    x8        R27       1
    x8        R29       1
    x8        R30       1
    x8        R32       1
    x8        R39       1
    x8        R41       1
    x8        R42       1
    x8        R44       1
    x8        R53       1
    x8        R54       1
    x8        R56       1
    x9        OBJ       1
    x9        R2        1
    x9        R4        1
    x9        R7        1
    x9        R9        1
    x9        R14       1
    x9        R16       1
    x9        R19       1
    x9        R21       1
    x9        R26       1
    x9        R28       1
    x9        R31       1
    x9        R33       1
    x9        R38       1
    x9        R40       1
    x9        R43       1
    x9        R45       1
    x9        R52       1
    x9        R55       1
    x9        R57       1
    x10       OBJ       1
    x10       R1        1
    x10       R4        1
    x10       R7        1
    x10       R10       1
    x10       R13       1
    x10       R16       1
    x10       R19       1
    x10       R22       1
    x10       R25       1
    x10       R28       1
    x10       R31       1
    x10       R34       1
    x10       R37       1
    x10       R40       1
    x10       R43       1
    x10       R46       1
    x10       R52       1
    x10       R55       1
    x10       R58       1
    x11       OBJ       1
    x11       R0        1
    x11       R5        1
    x11       R6        1
    x11       R11       1
    x11       R12       1
    x11       R17       1
    x11       R18       1
    x11       R23       1
    x11       R24       1
    x11       R29       1
    x11       R30       1
    x11       R35       1
    x11       R36       1
    x11       R41       1
    x11       R42       1
    x11       R47       1
    x11       R53       1
    x11       R54       1
    x11       R59       1
    x12       OBJ       1
    x12       R1        1
    x12       R2        1
    x12       R7        1
    x12       R11       1
    x12       R12       1
    x12       R16       1
    x12       R21       1
    x12       R22       1
    x12       R25       1
    x12       R26       1
    x12       R31       1
    x12       R33       1
    x12       R34       1
    x12       R37       1
    x12       R38       1
    x12       R43       1
    x12       R48       1
    x12       R52       1
    x12       R57       1
    x12       R58       1
    x13       OBJ       1
    x13       R0        1
    x13       R3        1
    x13       R6        1
    x13       R10       1
    x13       R13       1
    x13       R17       1
    x13       R20       1
    x13       R23       1
    x13       R24       1
    x13       R27       1
    x13       R30       1
    x13       R32       1
    x13       R35       1
    x13       R36       1
    x13       R39       1
    x13       R42       1
    x13       R49       1
    x13       R53       1
    x13       R56       1
    x13       R59       1
    x14       OBJ       1
    x14       R0        1
    x14       R3        1
    x14       R5        1
    x14       R9        1
    x14       R14       1
    x14       R18       1
    x14       R20       1
    x14       R23       1
    x14       R24       1
    x14       R27       1
    x14       R29       1
    x14       R32       1
    x14       R35       1
    x14       R36       1
    x14       R39       1
    x14       R41       1
    x14       R50       1
    x14       R54       1
    x14       R56       1
    x14       R59       1
    x15       OBJ       1
    x15       R1        1
    x15       R2        1
    x15       R4        1
    x15       R8        1
    x15       R15       1
    x15       R19       1
    x15       R21       1
    x15       R22       1
    x15       R25       1
    x15       R26       1
    x15       R28       1
    x15       R33       1
    x15       R34       1
    x15       R37       1
    x15       R38       1
    x15       R40       1
    x15       R51       1
    x15       R55       1
    x15       R57       1
    x15       R58       1
    x16       OBJ       1
    x16       R3        1
    x16       R5        1
    x16       R6        1
    x16       R9        1
    x16       R10       1
    x16       R12       1
    x16       R16       1
    x16       R23       1
    x16       R27       1
    x16       R29       1
    x16       R30       1
    x16       R32       1
    x16       R36       1
    x16       R47       1
    x16       R49       1
    x16       R50       1
    x16       R53       1
    x16       R54       1
    x16       R56       1
    x17       OBJ       1
    x17       R2        1
    x17       R4        1
    x17       R7        1
    x17       R8        1
    x17       R11       1
    x17       R13       1
    x17       R17       1
    x17       R22       1
    x17       R26       1
    x17       R28       1
    x17       R31       1
    x17       R33       1
    x17       R37       1
    x17       R46       1
    x17       R48       1
    x17       R51       1
    x17       R52       1
    x17       R55       1
    x17       R57       1
    x18       OBJ       1
    x18       R1        1
    x18       R4        1
    x18       R7        1
    x18       R8        1
    x18       R11       1
    x18       R14       1
    x18       R18       1
    x18       R21       1
    x18       R25       1
    x18       R28       1
    x18       R31       1
    x18       R34       1
    x18       R38       1
    x18       R45       1
    x18       R48       1
    x18       R51       1
    x18       R52       1
    x18       R55       1
    x18       R58       1
    x19       OBJ       1
    x19       R0        1
    x19       R5        1
    x19       R6        1
    x19       R9        1
    x19       R10       1
    x19       R15       1
    x19       R19       1
    x19       R20       1
    x19       R24       1
    x19       R29       1
    x19       R30       1
    x19       R35       1
    x19       R39       1
    x19       R44       1
    x19       R49       1
    x19       R50       1
    x19       R53       1
    x19       R54       1
    x19       R59       1
    x20       OBJ       1
    x20       R1        1
    x20       R2        1
    x20       R7        1
    x20       R8        1
    x20       R13       1
    x20       R14       1
    x20       R19       1
    x20       R20       1
    x20       R25       1
    x20       R26       1
    x20       R31       1
    x20       R33       1
    x20       R34       1
    x20       R40       1
    x20       R45       1
    x20       R46       1
    x20       R51       1
    x20       R52       1
    x20       R57       1
    x20       R58       1
    x21       OBJ       1
    x21       R0        1
    x21       R3        1
    x21       R6        1
    x21       R9        1
    x21       R12       1
    x21       R15       1
    x21       R18       1
    x21       R21       1
    x21       R24       1
    x21       R27       1
    x21       R30       1
    x21       R32       1
    x21       R35       1
    x21       R41       1
    x21       R44       1
    x21       R47       1
    x21       R50       1
    x21       R53       1
    x21       R56       1
    x21       R59       1
    x22       OBJ       1
    x22       R0        1
    x22       R3        1
    x22       R5        1
    x22       R10       1
    x22       R12       1
    x22       R15       1
    x22       R17       1
    x22       R22       1
    x22       R24       1
    x22       R27       1
    x22       R29       1
    x22       R32       1
    x22       R35       1
    x22       R42       1
    x22       R44       1
    x22       R47       1
    x22       R49       1
    x22       R54       1
    x22       R56       1
    x22       R59       1
    x23       OBJ       1
    x23       R1        1
    x23       R2        1
    x23       R4        1
    x23       R11       1
    x23       R13       1
    x23       R14       1
    x23       R16       1
    x23       R23       1
    x23       R25       1
    x23       R26       1
    x23       R28       1
    x23       R33       1
    x23       R34       1
    x23       R43       1
    x23       R45       1
    x23       R46       1
    x23       R48       1
    x23       R55       1
    x23       R57       1
    x23       R58       1
    x24       OBJ       1
    x24       R1        1
    x24       R2        1
    x24       R4        1
    x24       R11       1
    x24       R13       1
    x24       R14       1
    x24       R19       1
    x24       R21       1
    x24       R22       1
    x24       R24       1
    x24       R31       1
    x24       R37       1
    x24       R38       1
    x24       R40       1
    x24       R45       1
    x24       R46       1
    x24       R48       1
    x24       R55       1
    x24       R57       1
    x24       R58       1
    x25       OBJ       1
    x25       R0        1
    x25       R3        1
    x25       R5        1
    x25       R10       1
    x25       R12       1
    x25       R15       1
    x25       R18       1
    x25       R20       1
    x25       R23       1
    x25       R25       1
    x25       R30       1
    x25       R36       1
    x25       R39       1
    x25       R41       1
    x25       R44       1
    x25       R47       1
    x25       R49       1
    x25       R54       1
    x25       R56       1
    x25       R59       1
    x26       OBJ       1
    x26       R0        1
    x26       R3        1
    x26       R6        1
    x26       R9        1
    x26       R12       1
    x26       R15       1
    x26       R17       1
    x26       R20       1
    x26       R23       1
    x26       R26       1
    x26       R29       1
    x26       R36       1
    x26       R39       1
    x26       R42       1
    x26       R44       1
    x26       R47       1
    x26       R50       1
    x26       R53       1
    x26       R56       1
    x26       R59       1
    x27       OBJ       1
    x27       R1        1
    x27       R2        1
    x27       R7        1
    x27       R8        1
    x27       R13       1
    x27       R14       1
    x27       R16       1
    x27       R21       1
    x27       R22       1
    x27       R27       1
    x27       R28       1
    x27       R37       1
    x27       R38       1
    x27       R43       1
    x27       R45       1
    x27       R46       1
    x27       R51       1
    x27       R52       1
    x27       R57       1
    x27       R58       1
    x28       OBJ       1
    x28       R0        1
    x28       R5        1
    x28       R6        1
    x28       R9        1
    x28       R10       1
    x28       R15       1
    x28       R17       1
    x28       R18       1
    x28       R23       1
    x28       R27       1
    x28       R28       1
    x28       R32       1
    x28       R36       1
    x28       R41       1
    x28       R42       1
    x28       R44       1
    x28       R49       1
    x28       R50       1
    x28       R53       1
    x28       R54       1
    x28       R59       1
    x29       OBJ       1
    x29       R1        1
    x29       R4        1
    x29       R7        1
    x29       R8        1
    x29       R11       1
    x29       R14       1
    x29       R16       1
    x29       R19       1
    x29       R22       1
    x29       R26       1
    x29       R29       1
    x29       R33       1
    x29       R37       1
    x29       R40       1
    x29       R43       1
    x29       R45       1
    x29       R48       1
    x29       R51       1
    x29       R52       1
    x29       R55       1
    x29       R58       1
    x30       OBJ       1
    x30       R2        1
    x30       R4        1
    x30       R7        1
    x30       R8        1
    x30       R11       1
    x30       R13       1
    x30       R16       1
    x30       R19       1
    x30       R21       1
    x30       R25       1
    x30       R30       1
    x30       R34       1
    x30       R38       1
    x30       R40       1
    x30       R43       1
    x30       R46       1
    x30       R48       1
    x30       R51       1
    x30       R52       1
    x30       R55       1
    x30       R57       1
    x31       OBJ       1
    x31       R3        1
    x31       R5        1
    x31       R6        1
    x31       R9        1
    x31       R10       1
    x31       R12       1
    x31       R17       1
    x31       R18       1
    x31       R20       1
    x31       R24       1
    x31       R31       1
    x31       R35       1
    x31       R39       1
    x31       R41       1
    x31       R42       1
    x31       R47       1
    x31       R49       1
    x31       R50       1
    x31       R53       1
    x31       R54       1
    x31       R56       1
    x32       OBJ       1
    x32       R3        1
    x32       R5        1
    x32       R6        1
    x32       R9        1
    x32       R10       1
    x32       R12       1
    x32       R17       1
    x32       R18       1
    x32       R20       1
    x32       R24       1
    x32       R35       1
    x32       R39       1
    x32       R41       1
    x32       R42       1
    x32       R47       1
    x32       R49       1
    x32       R50       1
    x32       R53       1
    x32       R54       1
    x32       R56       1
    x33       OBJ       1
    x33       R2        1
    x33       R4        1
    x33       R7        1
    x33       R8        1
    x33       R11       1
    x33       R13       1
    x33       R16       1
    x33       R19       1
    x33       R21       1
    x33       R25       1
    x33       R34       1
    x33       R38       1
    x33       R40       1
    x33       R43       1
    x33       R46       1
    x33       R48       1
    x33       R51       1
    x33       R52       1
    x33       R55       1
    x33       R57       1
    x34       OBJ       1
    x34       R1        1
    x34       R4        1
    x34       R7        1
    x34       R8        1
    x34       R11       1
    x34       R14       1
    x34       R16       1
    x34       R19       1
    x34       R22       1
    x34       R26       1
    x34       R33       1
    x34       R37       1
    x34       R40       1
    x34       R43       1
    x34       R45       1
    x34       R48       1
    x34       R51       1
    x34       R52       1
    x34       R55       1
    x34       R58       1
    x35       OBJ       1
    x35       R0        1
    x35       R5        1
    x35       R6        1
    x35       R9        1
    x35       R10       1
    x35       R15       1
    x35       R17       1
    x35       R18       1
    x35       R23       1
    x35       R27       1
    x35       R32       1
    x35       R36       1
    x35       R41       1
    x35       R42       1
    x35       R44       1
    x35       R49       1
    x35       R50       1
    x35       R53       1
    x35       R54       1
    x35       R59       1
    x36       OBJ       1
    x36       R1        1
    x36       R2        1
    x36       R7        1
    x36       R8        1
    x36       R13       1
    x36       R14       1
    x36       R16       1
    x36       R21       1
    x36       R22       1
    x36       R28       1
    x36       R32       1
    x36       R37       1
    x36       R38       1
    x36       R43       1
    x36       R45       1
    x36       R46       1
    x36       R51       1
    x36       R52       1
    x36       R57       1
    x36       R58       1
    x37       OBJ       1
    x37       R0        1
    x37       R3        1
    x37       R6        1
    x37       R9        1
    x37       R12       1
    x37       R15       1
    x37       R17       1
    x37       R20       1
    x37       R23       1
    x37       R29       1
    x37       R33       1
    x37       R36       1
    x37       R39       1
    x37       R42       1
    x37       R44       1
    x37       R47       1
    x37       R50       1
    x37       R53       1
    x37       R56       1
    x37       R59       1
    x38       OBJ       1
    x38       R0        1
    x38       R3        1
    x38       R5        1
    x38       R10       1
    x38       R12       1
    x38       R15       1
    x38       R18       1
    x38       R20       1
    x38       R23       1
    x38       R30       1
    x38       R34       1
    x38       R36       1
    x38       R39       1
    x38       R41       1
    x38       R44       1
    x38       R47       1
    x38       R49       1
    x38       R54       1
    x38       R56       1
    x38       R59       1
    x39       OBJ       1
    x39       R1        1
    x39       R2        1
    x39       R4        1
    x39       R11       1
    x39       R13       1
    x39       R14       1
    x39       R19       1
    x39       R21       1
    x39       R22       1
    x39       R31       1
    x39       R35       1
    x39       R37       1
    x39       R38       1
    x39       R40       1
    x39       R45       1
    x39       R46       1
    x39       R48       1
    x39       R55       1
    x39       R57       1
    x39       R58       1
    x40       OBJ       1
    x40       R1        1
    x40       R2        1
    x40       R4        1
    x40       R11       1
    x40       R13       1
    x40       R14       1
    x40       R16       1
    x40       R25       1
    x40       R26       1
    x40       R28       1
    x40       R33       1
    x40       R34       1
    x40       R36       1
    x40       R43       1
    x40       R45       1
    x40       R46       1
    x40       R48       1
    x40       R55       1
    x40       R57       1
    x40       R58       1
    x41       OBJ       1
    x41       R0        1
    x41       R3        1
    x41       R5        1
    x41       R10       1
    x41       R12       1
    x41       R15       1
    x41       R17       1
    x41       R24       1
    x41       R27       1
    x41       R29       1
    x41       R32       1
    x41       R35       1
    x41       R37       1
    x41       R42       1
    x41       R44       1
    x41       R47       1
    x41       R49       1
    x41       R54       1
    x41       R56       1
    x41       R59       1
    x42       OBJ       1
    x42       R0        1
    x42       R3        1
    x42       R6        1
    x42       R9        1
    x42       R12       1
    x42       R15       1
    x42       R18       1
    x42       R24       1
    x42       R27       1
    x42       R30       1
    x42       R32       1
    x42       R35       1
    x42       R38       1
    x42       R41       1
    x42       R44       1
    x42       R47       1
    x42       R50       1
    x42       R53       1
    x42       R56       1
    x42       R59       1
    x43       OBJ       1
    x43       R1        1
    x43       R2        1
    x43       R7        1
    x43       R8        1
    x43       R13       1
    x43       R14       1
    x43       R19       1
    x43       R25       1
    x43       R26       1
    x43       R31       1
    x43       R33       1
    x43       R34       1
    x43       R39       1
    x43       R40       1
    x43       R45       1
    x43       R46       1
    x43       R51       1
    x43       R52       1
    x43       R57       1
    x43       R58       1
    x44       OBJ       1
    x44       R0        1
    x44       R5        1
    x44       R6        1
    x44       R9        1
    x44       R10       1
    x44       R15       1
    x44       R20       1
    x44       R24       1
    x44       R29       1
    x44       R30       1
    x44       R35       1
    x44       R39       1
    x44       R40       1
    x44       R44       1
    x44       R49       1
    x44       R50       1
    x44       R53       1
    x44       R54       1
    x44       R59       1
    x45       OBJ       1
    x45       R1        1
    x45       R4        1
    x45       R7        1
    x45       R8        1
    x45       R11       1
    x45       R14       1
    x45       R21       1
    x45       R25       1
    x45       R28       1
    x45       R31       1
    x45       R34       1
    x45       R38       1
    x45       R41       1
    x45       R45       1
    x45       R48       1
    x45       R51       1
    x45       R52       1
    x45       R55       1
    x45       R58       1
    x46       OBJ       1
    x46       R2        1
    x46       R4        1
    x46       R7        1
    x46       R8        1
    x46       R11       1
    x46       R13       1
    x46       R22       1
    x46       R26       1
    x46       R28       1
    x46       R31       1
    x46       R33       1
    x46       R37       1
    x46       R42       1
    x46       R46       1
    x46       R48       1
    x46       R51       1
    x46       R52       1
    x46       R55       1
    x46       R57       1
    x47       OBJ       1
    x47       R3        1
    x47       R5        1
    x47       R6        1
    x47       R9        1
    x47       R10       1
    x47       R12       1
    x47       R23       1
    x47       R27       1
    x47       R29       1
    x47       R30       1
    x47       R32       1
    x47       R36       1
    x47       R43       1
    x47       R47       1
    x47       R49       1
    x47       R50       1
    x47       R53       1
    x47       R54       1
    x47       R56       1
    x48       OBJ       1
    x48       R1        1
    x48       R2        1
    x48       R4        1
    x48       R8        1
    x48       R19       1
    x48       R21       1
    x48       R22       1
    x48       R25       1
    x48       R26       1
    x48       R28       1
    x48       R33       1
    x48       R34       1
    x48       R37       1
    x48       R38       1
    x48       R40       1
    x48       R44       1
    x48       R51       1
    x48       R55       1
    x48       R57       1
    x48       R58       1
    x49       OBJ       1
    x49       R0        1
    x49       R3        1
    x49       R5        1
    x49       R9        1
    x49       R18       1
    x49       R20       1
    x49       R23       1
    x49       R24       1
    x49       R27       1
    x49       R29       1
    x49       R32       1
    x49       R35       1
    x49       R36       1
    x49       R39       1
    x49       R41       1
    x49       R45       1
    x49       R50       1
    x49       R54       1
    x49       R56       1
    x49       R59       1
    x50       OBJ       1
    x50       R0        1
    x50       R3        1
    x50       R6        1
    x50       R10       1
    x50       R17       1
    x50       R20       1
    x50       R23       1
    x50       R24       1
    x50       R27       1
    x50       R30       1
    x50       R32       1
    x50       R35       1
    x50       R36       1
    x50       R39       1
    x50       R42       1
    x50       R46       1
    x50       R49       1
    x50       R53       1
    x50       R56       1
    x50       R59       1
    x51       OBJ       1
    x51       R1        1
    x51       R2        1
    x51       R7        1
    x51       R11       1
    x51       R16       1
    x51       R21       1
    x51       R22       1
    x51       R25       1
    x51       R26       1
    x51       R31       1
    x51       R33       1
    x51       R34       1
    x51       R37       1
    x51       R38       1
    x51       R43       1
    x51       R47       1
    x51       R48       1
    x51       R52       1
    x51       R57       1
    x51       R58       1
    x52       OBJ       1
    x52       R0        1
    x52       R5        1
    x52       R6        1
    x52       R12       1
    x52       R17       1
    x52       R18       1
    x52       R23       1
    x52       R24       1
    x52       R29       1
    x52       R30       1
    x52       R35       1
    x52       R36       1
    x52       R41       1
    x52       R42       1
    x52       R47       1
    x52       R48       1
    x52       R53       1
    x52       R54       1
    x52       R59       1
    x53       OBJ       1
    x53       R1        1
    x53       R4        1
    x53       R7        1
    x53       R13       1
    x53       R16       1
    x53       R19       1
    x53       R22       1
    x53       R25       1
    x53       R28       1
    x53       R31       1
    x53       R34       1
    x53       R37       1
    x53       R40       1
    x53       R43       1
    x53       R46       1
    x53       R49       1
    x53       R52       1
    x53       R55       1
    x53       R58       1
    x54       OBJ       1
    x54       R2        1
    x54       R4        1
    x54       R7        1
    x54       R14       1
    x54       R16       1
    x54       R19       1
    x54       R21       1
    x54       R26       1
    x54       R28       1
    x54       R31       1
    x54       R33       1
    x54       R38       1
    x54       R40       1
    x54       R43       1
    x54       R45       1
    x54       R50       1
    x54       R52       1
    x54       R55       1
    x54       R57       1
    x55       OBJ       1
    x55       R3        1
    x55       R5        1
    x55       R6        1
    x55       R15       1
    x55       R17       1
    x55       R18       1
    x55       R20       1
    x55       R27       1
    x55       R29       1
    x55       R30       1
    x55       R32       1
    x55       R39       1
    x55       R41       1
    x55       R42       1
    x55       R44       1
    x55       R51       1
    x55       R53       1
    x55       R54       1
    x55       R56       1
    x56       OBJ       1
    x56       R0        1
    x56       R9        1
    x56       R10       1
    x56       R12       1
    x56       R17       1
    x56       R18       1
    x56       R20       1
    x56       R27       1
    x56       R29       1
    x56       R30       1
    x56       R32       1
    x56       R39       1
    x56       R41       1
    x56       R42       1
    x56       R47       1
    x56       R49       1
    x56       R50       1
    x56       R52       1
    x56       R59       1
    x57       OBJ       1
    x57       R1        1
    x57       R8        1
    x57       R11       1
    x57       R13       1
    x57       R16       1
    x57       R19       1
    x57       R21       1
    x57       R26       1
    x57       R28       1
    x57       R31       1
    x57       R33       1
    x57       R38       1
    x57       R40       1
    x57       R43       1
    x57       R46       1
    x57       R48       1
    x57       R51       1
    x57       R53       1
    x57       R58       1
    x58       OBJ       1
    x58       R2        1
    x58       R8        1
    x58       R11       1
    x58       R14       1
    x58       R16       1
    x58       R19       1
    x58       R22       1
    x58       R25       1
    x58       R28       1
    x58       R31       1
    x58       R34       1
    x58       R37       1
    x58       R40       1
    x58       R43       1
    x58       R45       1
    x58       R48       1
    x58       R51       1
    x58       R54       1
    x58       R57       1
    x59       OBJ       1
    x59       R3        1
    x59       R9        1
    x59       R10       1
    x59       R15       1
    x59       R17       1
    x59       R18       1
    x59       R23       1
    x59       R24       1
    x59       R29       1
    x59       R30       1
    x59       R35       1
    x59       R36       1
    x59       R41       1
    x59       R42       1
    x59       R44       1
    x59       R49       1
    x59       R50       1
    x59       R55       1
    x59       R56       1
    x60       OBJ       1
    x60       R4        1
    x60       R8        1
    x60       R13       1
    x60       R14       1
    x60       R16       1
    x60       R21       1
    x60       R22       1
    x60       R25       1
    x60       R26       1
    x60       R31       1
    x60       R33       1
    x60       R34       1
    x60       R37       1
    x60       R38       1
    x60       R43       1
    x60       R45       1
    x60       R46       1
    x60       R51       1
    x60       R55       1
    x60       R56       1
    x61       OBJ       1
    x61       R5        1
    x61       R9        1
    x61       R12       1
    x61       R15       1
    x61       R17       1
    x61       R20       1
    x61       R23       1
    x61       R24       1
    x61       R27       1
    x61       R30       1
    x61       R32       1
    x61       R35       1
    x61       R36       1
    x61       R39       1
    x61       R42       1
    x61       R44       1
    x61       R47       1
    x61       R50       1
    x61       R54       1
    x61       R57       1
    x62       OBJ       1
    x62       R6        1
    x62       R10       1
    x62       R12       1
    x62       R15       1
    x62       R18       1
    x62       R20       1
    x62       R23       1
    x62       R24       1
    x62       R27       1
    x62       R29       1
    x62       R32       1
    x62       R35       1
    x62       R36       1
    x62       R39       1
    x62       R41       1
    x62       R44       1
    x62       R47       1
    x62       R49       1
    x62       R53       1
    x62       R58       1
    x63       OBJ       1
    x63       R7        1
    x63       R11       1
    x63       R13       1
    x63       R14       1
    x63       R19       1
    x63       R21       1
    x63       R22       1
    x63       R25       1
    x63       R26       1
    x63       R28       1
    x63       R33       1
    x63       R34       1
    x63       R37       1
    x63       R38       1
    x63       R40       1
    x63       R45       1
    x63       R46       1
    x63       R48       1
    x63       R52       1
    x63       R59       1
RHS
    RHS1      R0        1
    RHS1      R1        1
    RHS1      R2        1
    RHS1      R3        1
    RHS1      R4        1
    RHS1      R5        1
    RHS1      R6        1
    RHS1      R7        1
    RHS1      R8        1
    RHS1      R9        1
    RHS1      R10       1
    RHS1      R11       1
    RHS1      R12       1
    RHS1      R13       1
    RHS1      R14       1
    RHS1      R15       1
    RHS1      R16       1
    RHS1      R17       1
    RHS1      R18       1
    RHS1      R19       1
    RHS1      R20       1
    RHS1      R21       1
    RHS1      R22       1
    RHS1      R23       1
    RHS1      R24       1
    RHS1      R25       1
    RHS1      R26       1
    RHS1      R27       1
    RHS1      R28       1
    RHS1      R29       1
    RHS1      R30       1
    RHS1      R31       1
    RHS1      R32       1
    RHS1      R33       1
    RHS1      R34       1
    RHS1      R35       1
    RHS1      R36       1
    RHS1      R37       1
    RHS1      R38       1
    RHS1      R39       1
    RHS1      R40       1
    RHS1      R41       1
    RHS1      R42       1
    RHS1      R43       1
    RHS1      R44       1
    RHS1      R45       1
    RHS1      R46       1
    RHS1      R47       1
    RHS1      R48       1
    RHS1      R49       1
    RHS1      R50       1
    RHS1      R51       1
    RHS1      R52       1
    RHS1      R53       1
    RHS1      R54       1
    RHS1      R55       1
    RHS1      R56       1
    RHS1      R57       1
    RHS1      R58       1
    RHS1      R59       1
BOUNDS
 UP BND1      x0        1
 UP BND1      x1        1
 UP BND1      x2        1
 UP BND1      x3        1
 UP BND1      x4        1
 UP BND1      x5        1
 UP BND1      x6        1
 UP BND1      x7        1
 UP BND1      x8        1
 UP BND1      x9        1
 UP BND1      x10       1
 UP BND1      x11       1
 UP BND1      x12       1
 UP BND1      x13       1
 UP BND1      x14       1
 UP BND1      x15       1
 UP BND1      x16       1
 UP BND1      x17       1
 UP BND1      x18       1
 UP BND1      x19       1
 UP BND1      x20       1
 UP BND1      x21       1
 UP BND1      x22       1
 UP BND1      x23       1
 UP BND1      x24       1
 UP BND1      x25       1
 UP BND1      x26       1
 UP BND1      x27       1
 UP BND1      x28       1
 UP BND1      x29       1
 UP BND1      x30       1
 UP BND1      x31       1
 UP BND1      x32       1
 UP BND1      x33       1
 UP BND1      x34       1
 UP BND1      x35       1
 UP BND1      x36       1
 UP BND1      x37       1
 UP BND1      x38       1
 UP BND1      x39       1
 UP BND1      x40       1
 UP BND1      x41       1
 UP BND1      x42       1
 UP BND1      x43       1
 UP BND1      x44       1
 UP BND1      x45       1
 UP BND1      x46       1
 UP BND1      x47       1
 UP BND1      x48       1
 UP BND1      x49       1
 UP BND1      x50       1
 UP BND1      x51       1
 UP BND1      x52       1
 UP BND1      x53       1
 UP BND1      x54       1
 UP BND1      x55       1
 UP BND1      x56       1
 UP BND1      x57       1
 UP BND1      x58       1
 UP BND1      x59       1
 UP BND1      x60       1
 UP BND1      x61       1
 UP BND1      x62       1
 UP BND1      x63       1
ENDATA
